unsat
(define-fun f ((x (_ BitVec 64))) (_ BitVec 64) (let ((_let_1 (bvnot x))) (let ((_let_2 (ehad x))) (im (bvadd #b0000000000000000000000000000000000000000000000000000000000000001 (im x #b0000000000000000000000000000000000000000000000000000000000000001 #b0000000000000000000000000000000000000000000000000000000000000000)) (im (bvand #b0000000000000000000000000000000000000000000000000000000000000001 _let_1) (im (bvand #b0000000000000000000000000000000000000000000000000000000000000001 _let_2) _let_1 (bvnot (bvadd x _let_2))) (bvnot (bvor x (arba x)))) _let_1))))
0.13user 0.01system 0:00.14elapsed 99%CPU (0avgtext+0avgdata 31148maxresident)k
0inputs+8outputs (0major+2474minor)pagefaults 0swaps
